n_nodes = 30;
edges = [
	{2, 3, 4, 5, 6, 7, 8, 9, 10, 11, 12, 19, 22, 23, 29},
	{3, 4, 5, 6, 7, 10, 11, 22, 29},
	{4, 6, 7, 8, 9, 10, 12, 13, 14, 23, 24, 30},
	{6, 7, 8, 9, 10, 12, 14},
	{6, 7, 8, 11, 15, 16, 17, 18, 19, 21},
	{7, 8, 9, 10, 11, 12, 14, 22, 26, 30},
	{8, 9, 10, 11, 12, 14, 16, 19, 22, 23},
	{10, 11, 12, 17, 21, 22, 23},
	{10, 12, 27, 29, 30},
	{11, 12, 14, 22},
	{17, 22},
	{14, 16, 17, 19, 20, 21, 23, 24, 27, 29, 30},
	{14, 17, 19, 27, 30},
	{15, 16, 19, 26, 27, 28, 29, 30},
	{16, 17, 18, 19, 25, 30},
	{17, 18, 19, 21},
	{18, 19, 21, 24, 27, 30},
	{24, 19, 21},
	{20},
	{21, 22, 23, 24, 26, 27, 29, 30},
	{22, 23, 24, 25, 26, 27, 29, 30},
	{24, 23},
	{24, 26, 27},
	{25, 26, 27, 29},
	{26, 27, 28, 29, 30},
	{27, 28, 29, 30},
	{28, 29, 30},
	{29, 30},
	{30},
	{ }
];